12 23
1 10 405
1 11 170
1 12 392
2 3 214
2 4 256
2 9 220
2 12 209
3 4 456
3 5 300
3 9 72
3 12 185
4 12 457
5 6 234
5 7 153
5 8 436
6 7 124
6 8 341
6 9 228
7 8 299
8 10 550
9 12 121
10 11 334
11 12 551
